
  22   10
  10   10   10   10   10   10   10   10   10   10

   0   0   0   0   0   0   0   0   0   0   0  15 2 3 4 5 6 7 13 14 15 16 17 18 19 20 21 
   7   0   0   0   0   0   0   0   0  10   0   3 11 10 8 
   9   0   0   0   0  10   0   0   0   0   0   2 11 8 
   4   0   0   0   0   0   0  10   0   0   0   2 9 8 
   4   0   0   0   0   0   0  10   0   0   0   1 12 
   5   0   0   0   0   0  10   0   0   0   0   1 10 
   5   0   0   0   0   0  10   0   0   0   0   1 9 
   5   0   0   0   0   0   0  10   0   0   0   1 22
   5   0   0   0   0   0   0   0  10   0   0   1 22
   2   0   0   0   0   0   0   0  10   0   0   1 22
  10   0   0  10   0   0   0   0   0   0   0   1 22
   4   0   0   0   0   0  10   0   0   0   0   1 22
   5   0   0   0   0   0   0   0   0  10   0   1 22
   7   0   0   0   0  10   0   0   0   0   0   1 22
   1   0   0   0  10   0   0   0   0   0   0   1 22
   7   0   0   0   0   0   0  10   0   0   0   1 22
   1   0   0   0   0   0   0   0   0   0  10   1 22
   2   0   0   0   0   0  10   0   0   0   0   1 22
   4   0   0   0  10   0   0   0   0   0   0   1 22
   9   0   0   0   0   0   0  10   0   0   0   1 22
   3   0   0   0   0   0   0   0  10   0   0   1 22
   0   0   0   0   0   0   0   0   0   0   0   0 
